c description: Random 3-CNF over 15 variables and 30 clauses
p cnf 15 30
-4 7 9 0
3 -8 10 0
9 -12 -13 0
3 -5 13 0
1 -9 -14 0
9 -12 15 0
-1 -4 14 0
6 11 -15 0
11 -12 15 0
4 10 -13 0
-2 -6 -15 0
3 5 -10 0
7 -13 -14 0
3 6 14 0
1 2 7 0
2 4 -14 0
3 6 -10 0
-10 14 -15 0
-3 8 10 0
-2 10 15 0
2 7 -13 0
-1 -7 11 0
-3 -9 12 0
2 4 -5 0
4 9 -13 0
4 9 10 0
6 -9 -15 0
1 -3 -9 0
4 6 -11 0
9 -10 11 0